p edge 500 144
e 166 486 1.000000
e 78 166 1.000000
e 78 486 1.000000
e 203 334 1.000000
e 25 203 1.000000
e 25 334 1.000000
e 38 421 1.000000
e 38 275 1.000000
e 275 421 1.000000
e 49 188 1.000000
e 49 299 1.000000
e 188 299 1.000000
e 30 466 1.000000
e 30 260 1.000000
e 260 466 1.000000
e 20 110 1.000000
e 20 45 1.000000
e 45 110 1.000000
e 215 223 1.000000
e 36 223 1.000000
e 36 215 1.000000
e 124 283 1.000000
e 47 124 1.000000
e 47 283 1.000000
e 218 424 1.000000
e 31 218 1.000000
e 31 424 1.000000
e 290 486 1.000000
e 64 290 1.000000
e 64 486 1.000000
e 115 323 1.000000
e 115 322 1.000000
e 322 323 1.000000
e 299 486 1.000000
e 32 299 1.000000
e 32 486 1.000000
e 296 300 1.000000
e 204 296 1.000000
e 204 300 1.000000
e 26 500 1.000000
e 26 114 1.000000
e 114 500 1.000000
e 24 286 1.000000
e 24 440 1.000000
e 286 440 1.000000
e 69 149 1.000000
e 69 215 1.000000
e 149 215 1.000000
e 74 277 1.000000
e 61 74 1.000000
e 61 277 1.000000
e 158 293 1.000000
e 158 287 1.000000
e 287 293 1.000000
e 350 418 1.000000
e 93 418 1.000000
e 93 350 1.000000
e 53 298 1.000000
e 53 293 1.000000
e 293 298 1.000000
e 97 328 1.000000
e 97 191 1.000000
e 191 328 1.000000
e 50 281 1.000000
e 50 365 1.000000
e 281 365 1.000000
e 33 289 1.000000
e 31 33 1.000000
e 31 289 1.000000
e 106 317 1.000000
e 106 255 1.000000
e 255 317 1.000000
e 273 349 1.000000
e 219 349 1.000000
e 219 273 1.000000
e 161 398 1.000000
e 161 239 1.000000
e 239 398 1.000000
e 300 473 1.000000
e 233 300 1.000000
e 233 473 1.000000
e 154 186 1.000000
e 128 186 1.000000
e 128 154 1.000000
e 93 407 1.000000
e 93 358 1.000000
e 358 407 1.000000
e 125 400 1.000000
e 42 400 1.000000
e 42 125 1.000000
e 154 295 1.000000
e 154 269 1.000000
e 269 295 1.000000
e 254 449 1.000000
e 176 254 1.000000
e 176 449 1.000000
e 230 374 1.000000
e 148 374 1.000000
e 148 230 1.000000
e 38 312 1.000000
e 38 61 1.000000
e 61 312 1.000000
e 215 263 1.000000
e 85 263 1.000000
e 85 215 1.000000
e 176 388 1.000000
e 78 388 1.000000
e 78 176 1.000000
e 251 478 1.000000
e 216 478 1.000000
e 216 251 1.000000
e 21 493 1.000000
e 21 343 1.000000
e 343 493 1.000000
e 40 392 1.000000
e 40 286 1.000000
e 286 392 1.000000
e 294 405 1.000000
e 294 449 1.000000
e 405 449 1.000000
e 161 419 1.000000
e 161 175 1.000000
e 175 419 1.000000
e 180 356 1.000000
e 180 305 1.000000
e 305 356 1.000000
e 255 297 1.000000
e 255 409 1.000000
e 297 409 1.000000
e 234 431 1.000000
e 36 234 1.000000
e 36 431 1.000000
e 48 484 1.000000
e 48 139 1.000000
e 139 484 1.000000
e 243 357 1.000000
e 243 341 1.000000
e 341 357 1.000000
e 34 375 1.000000
e 32 34 1.000000
e 32 375 1.000000
e 159 360 1.000000
e 159 332 1.000000
e 332 360 1.000000
